100
300
50
0 0
50 46
64 2
19 22
52 43
40 67
90 2
77 46
26 97
8 47
19 75
22 28
78 89
95 84
44 91
15 51
5 5
64 53
53 76
82 0
28 21
68 21
67 16
3 28
15 8
61 27
50 9
57 14
6 61
54 27
77 61
87 44
39 70
16 54
22 75
38 100
17 37
33 45
72 44
84 51
22 35
14 7
70 48
17 99
77 45
78 42
68 39
87 61
34 72
25 18
87 57
0 0
30
50
60
30
70
50
50
60
40
30
40
30
50
30
60
30
40
40
30
60
30
50
70
40
50
30
50
60
30
70
50
50
60
40
30
40
30
50
30
60
30
40
40
30
60
30
50
70
40
50
